p tw 100 254
0 1
0 97
1 49
1 54
1 69
1 91
2 3
2 4
2 5
2 39
2 40
3 4
3 5
3 22
3 23
3 24
4 5
4 53
5 15
5 16
5 17
5 18
5 19
6 7
6 33
6 76
6 83
7 79
8 9
8 10
8 11
8 50
8 65
8 68
8 88
8 89
9 10
9 11
9 52
10 11
10 12
10 13
10 14
11 51
11 75
11 83
12 13
12 14
12 67
12 89
13 14
13 49
13 50
13 51
13 52
14 75
15 16
15 17
15 18
15 19
15 39
16 17
16 18
16 19
16 27
17 18
17 19
17 28
17 40
18 19
18 92
18 98
19 53
20 21
20 43
20 64
21 44
21 81
22 23
22 24
22 46
22 59
22 82
23 24
23 87
24 45
24 60
24 70
24 71
25 26
25 98
26 92
26 93
27 28
28 40
29 30
29 81
29 94
30 90
31 32
31 65
32 36
32 61
32 68
32 69
33 34
33 35
33 76
33 83
34 35
34 48
34 63
35 78
36 37
36 38
36 61
36 68
36 69
37 38
37 54
38 62
38 91
38 97
39 40
41 42
41 43
41 44
41 45
41 46
41 74
42 43
42 44
42 45
42 46
42 55
42 56
42 57
42 58
43 44
43 45
43 46
43 64
44 45
44 46
44 81
45 46
45 60
45 70
45 71
46 59
46 82
47 48
47 80
48 63
49 50
49 51
49 52
49 54
49 69
49 91
50 51
50 52
50 65
50 68
50 88
50 89
51 52
51 75
51 83
54 69
54 91
55 56
55 57
55 58
55 70
55 72
55 95
55 96
56 57
56 58
56 73
56 86
57 58
57 99
58 74
59 60
59 82
60 70
60 71
61 62
61 68
61 69
62 91
62 97
63 76
63 77
63 78
63 79
63 80
64 71
64 82
64 87
65 68
65 88
65 89
66 67
66 88
66 93
67 89
68 69
68 88
68 89
69 91
70 71
70 72
70 95
70 96
71 82
71 87
72 73
72 95
72 96
73 86
75 83
76 77
76 78
76 79
76 80
76 83
77 78
77 79
77 80
77 90
77 94
78 79
78 80
79 80
81 94
82 87
84 85
84 86
84 95
84 99
85 96
86 95
86 99
88 89
88 93
90 94
91 97
92 93
92 98
95 96
95 99
